nNurses = 121;
nHours = 39;
minHours = 10;
maxHours = 17;
maxConsec = 7;
maxPresence = 8;
demand = [17, 21, 26, 26, 21, 17, 19, 23, 21, 20, 21, 18, 20, 15, 11, 8, 7, 9, 13, 18, 22, 19, 17, 12, 17, 21, 18, 21, 23, 25, 20, 19, 24, 20, 18, 19, 17, 20, 23];
